experiment/data/hgs-res/Vrp-Set-P-n55/Vrp-Set-P-n55-hgs/3.hgs1.vrp
NAME : 3
COMMENT : CVRP Instance
TYPE : CVRP
DIMENSION : 55
EDGE_WEIGHT_TYPE : EUC_2D
CAPACITY : 160
NODE_COORD_SECTION
1	40.0	40.0
2	22.0	22.0
3	36.0	26.0
4	21.0	45.0
5	45.0	35.0
6	55.0	20.0
7	33.0	34.0
8	50.0	50.0
9	55.0	45.0
10	26.0	59.0
11	40.0	66.0
12	55.0	65.0
13	35.0	51.0
14	62.0	35.0
15	62.0	57.0
16	62.0	24.0
17	21.0	36.0
18	33.0	44.0
19	9.0	56.0
20	62.0	48.0
21	66.0	14.0
22	44.0	13.0
23	26.0	13.0
24	11.0	28.0
25	7.0	43.0
26	17.0	64.0
27	41.0	46.0
28	55.0	34.0
29	35.0	16.0
30	52.0	26.0
31	43.0	26.0
32	31.0	76.0
33	22.0	53.0
34	26.0	29.0
35	50.0	40.0
36	55.0	50.0
37	54.0	10.0
38	60.0	15.0
39	47.0	66.0
40	30.0	60.0
41	30.0	50.0
42	12.0	17.0
43	15.0	14.0
44	16.0	19.0
45	21.0	48.0
46	50.0	30.0
47	51.0	42.0
48	50.0	15.0
49	48.0	21.0
50	12.0	38.0
51	15.0	56.0
52	29.0	39.0
53	54.0	38.0
54	55.0	57.0
55	67.0	41.0
DEMAND_SECTION
1	0
2	18
3	26
4	11
5	30
6	21
7	19
8	15
9	16
10	29
11	26
12	37
13	16
14	12
15	31
16	8
17	19
18	20
19	13
20	15
21	22
22	28
23	12
24	6
25	27
26	14
27	18
28	17
29	29
30	13
31	22
32	25
33	28
34	27
35	19
36	10
37	12
38	14
39	24
40	16
41	33
42	15
43	11
44	18
45	17
46	21
47	27
48	19
49	20
50	5
51	22
52	12
53	19
54	22
55	16
DEPOT_SECTION
1
-1
EOF
