experiment/data/hgs-res/Vrp-Set-P-n55/Vrp-Set-P-n55-hgs/3.hgs1.tour
Route #1: 6 33 1 22 42 41 43 23 16 51
Route #2: 30 48 47 36 21 28 2
Route #3: 45 29 5 37 20 15 13 54 19 8
Route #4: 4 27 52 46 34
Route #5: 7 35 53 14 11 38 26
Route #6: 12 39 9 32 40 17
Route #7: 10 31 25 50 18 24 49 3 44
Cost 578.61
